200
[40,41,42,43,44,45,46,47,48,49,50,51,52,53,54,55,56,57,58,59,60,61,62,63,64,65,66,67,68,69,70,71,72,73,74,75,76,79,80,81,82,83,84,85,86,87,88,89,90,91,92,93,94,95,96,97,98,99,100,101,102,104,105,106,107,108,109,110,111,112,113,114,115,116,117,118,119,120,121,122,123,124,125,126,127,128,129,130,131,132,133,134,135,136,137,139,140,141,142,143,144,145,146,147,148,149,150,151,152,153,155,156,157,158,159,160]
[3,3,3,1,2,2,3,2,4,2,4,1,2,4,6,6,4,3,5,4,1,2,1,4,2,3,6,2,5,3,2,2,4,5,3,5,7,3,2,1,4,2,3,3,2,7,2,4,5,5,2,4,4,8,3,1,3,3,5,1,1,4,4,4,4,6,2,7,3,2,4,1,1,5,1,2,4,3,5,8,3,4,5,2,2,3,3,3,3,4,6,5,3,4,3,4,3,6,7,2,5,3,4,5,2,4,2,3,4,6,1,4,6,1,2,4]
